(set-logic QF_LRA)
(declare-fun X0 () Real )
(declare-fun Y0 () Real )
(declare-fun X1 () Real )
(declare-fun Y1 () Real )
(declare-fun X2 () Real )
(declare-fun Y2 () Real )
(declare-fun X3 () Real )
(declare-fun Y3 () Real )
(declare-fun X4 () Real )
(declare-fun Y4 () Real )
(declare-fun X5 () Real )
(declare-fun Y5 () Real )
(declare-fun X6 () Real )
(declare-fun Y6 () Real )
(declare-fun X7 () Real )
(declare-fun Y7 () Real )
(declare-fun X8 () Real )
(declare-fun Y8 () Real )
(declare-fun X9 () Real )
(declare-fun Y9 () Real )
(declare-fun X10 () Real )
(declare-fun Y10 () Real )
(declare-fun X11 () Real )
(declare-fun Y11 () Real )
(declare-fun X12 () Real )
(declare-fun Y12 () Real )
(declare-fun X13 () Real )
(declare-fun Y13 () Real )
(declare-fun X14 () Real )
(declare-fun Y14 () Real )
(declare-fun X15 () Real )
(declare-fun Y15 () Real )
(declare-fun X16 () Real )
(declare-fun Y16 () Real )
(declare-fun X17 () Real )
(declare-fun Y17 () Real )
(declare-fun Z () Real )
(declare-fun k () Real )
(assert (let
(( $goal (>= Z k) ))
(let
((
$phi ( and 
( or ( <= ( + X0 44 ) X1 )  ( <= ( + X1 12 ) X0 )  ( <= ( + Y0 30 ) Y1 )  ( <= ( + Y1 99 ) Y0 )  )
( or ( <= ( + X0 44 ) X2 )  ( <= ( + X2 83 ) X0 )  ( <= ( + Y0 30 ) Y2 )  ( <= ( + Y2 67 ) Y0 )  )
( or ( <= ( + X0 44 ) X3 )  ( <= ( + X3 59 ) X0 )  ( <= ( + Y0 30 ) Y3 )  ( <= ( + Y3 6 ) Y0 )  )
( or ( <= ( + X0 44 ) X4 )  ( <= ( + X4 49 ) X0 )  ( <= ( + Y0 30 ) Y4 )  ( <= ( + Y4 93 ) Y0 )  )
( or ( <= ( + X0 44 ) X5 )  ( <= ( + X5 28 ) X0 )  ( <= ( + Y0 30 ) Y5 )  ( <= ( + Y5 8 ) Y0 )  )
( or ( <= ( + X0 44 ) X6 )  ( <= ( + X6 41 ) X0 )  ( <= ( + Y0 30 ) Y6 )  ( <= ( + Y6 7 ) Y0 )  )
( or ( <= ( + X0 44 ) X7 )  ( <= ( + X7 35 ) X0 )  ( <= ( + Y0 30 ) Y7 )  ( <= ( + Y7 82 ) Y0 )  )
( or ( <= ( + X0 44 ) X8 )  ( <= ( + X8 71 ) X0 )  ( <= ( + Y0 30 ) Y8 )  ( <= ( + Y8 8 ) Y0 )  )
( or ( <= ( + X0 44 ) X9 )  ( <= ( + X9 24 ) X0 )  ( <= ( + Y0 30 ) Y9 )  ( <= ( + Y9 78 ) Y0 )  )
( or ( <= ( + X0 44 ) X10 )  ( <= ( + X10 29 ) X0 )  ( <= ( + Y0 30 ) Y10 )  ( <= ( + Y10 62 ) Y0 )  )
( or ( <= ( + X0 44 ) X11 )  ( <= ( + X11 90 ) X0 )  ( <= ( + Y0 30 ) Y11 )  ( <= ( + Y11 19 ) Y0 )  )
( or ( <= ( + X0 44 ) X12 )  ( <= ( + X12 76 ) X0 )  ( <= ( + Y0 30 ) Y12 )  ( <= ( + Y12 54 ) Y0 )  )
( or ( <= ( + X0 44 ) X13 )  ( <= ( + X13 89 ) X0 )  ( <= ( + Y0 30 ) Y13 )  ( <= ( + Y13 5 ) Y0 )  )
( or ( <= ( + X0 44 ) X14 )  ( <= ( + X14 11 ) X0 )  ( <= ( + Y0 30 ) Y14 )  ( <= ( + Y14 82 ) Y0 )  )
( or ( <= ( + X0 44 ) X15 )  ( <= ( + X15 30 ) X0 )  ( <= ( + Y0 30 ) Y15 )  ( <= ( + Y15 37 ) Y0 )  )
( or ( <= ( + X0 44 ) X16 )  ( <= ( + X16 9 ) X0 )  ( <= ( + Y0 30 ) Y16 )  ( <= ( + Y16 63 ) Y0 )  )
( or ( <= ( + X0 44 ) X17 )  ( <= ( + X17 65 ) X0 )  ( <= ( + Y0 30 ) Y17 )  ( <= ( + Y17 82 ) Y0 )  )
( or ( <= ( + X1 12 ) X2 )  ( <= ( + X2 83 ) X1 )  ( <= ( + Y1 99 ) Y2 )  ( <= ( + Y2 67 ) Y1 )  )
( or ( <= ( + X1 12 ) X3 )  ( <= ( + X3 59 ) X1 )  ( <= ( + Y1 99 ) Y3 )  ( <= ( + Y3 6 ) Y1 )  )
( or ( <= ( + X1 12 ) X4 )  ( <= ( + X4 49 ) X1 )  ( <= ( + Y1 99 ) Y4 )  ( <= ( + Y4 93 ) Y1 )  )
( or ( <= ( + X1 12 ) X5 )  ( <= ( + X5 28 ) X1 )  ( <= ( + Y1 99 ) Y5 )  ( <= ( + Y5 8 ) Y1 )  )
( or ( <= ( + X1 12 ) X6 )  ( <= ( + X6 41 ) X1 )  ( <= ( + Y1 99 ) Y6 )  ( <= ( + Y6 7 ) Y1 )  )
( or ( <= ( + X1 12 ) X7 )  ( <= ( + X7 35 ) X1 )  ( <= ( + Y1 99 ) Y7 )  ( <= ( + Y7 82 ) Y1 )  )
( or ( <= ( + X1 12 ) X8 )  ( <= ( + X8 71 ) X1 )  ( <= ( + Y1 99 ) Y8 )  ( <= ( + Y8 8 ) Y1 )  )
( or ( <= ( + X1 12 ) X9 )  ( <= ( + X9 24 ) X1 )  ( <= ( + Y1 99 ) Y9 )  ( <= ( + Y9 78 ) Y1 )  )
( or ( <= ( + X1 12 ) X10 )  ( <= ( + X10 29 ) X1 )  ( <= ( + Y1 99 ) Y10 )  ( <= ( + Y10 62 ) Y1 )  )
( or ( <= ( + X1 12 ) X11 )  ( <= ( + X11 90 ) X1 )  ( <= ( + Y1 99 ) Y11 )  ( <= ( + Y11 19 ) Y1 )  )
( or ( <= ( + X1 12 ) X12 )  ( <= ( + X12 76 ) X1 )  ( <= ( + Y1 99 ) Y12 )  ( <= ( + Y12 54 ) Y1 )  )
( or ( <= ( + X1 12 ) X13 )  ( <= ( + X13 89 ) X1 )  ( <= ( + Y1 99 ) Y13 )  ( <= ( + Y13 5 ) Y1 )  )
( or ( <= ( + X1 12 ) X14 )  ( <= ( + X14 11 ) X1 )  ( <= ( + Y1 99 ) Y14 )  ( <= ( + Y14 82 ) Y1 )  )
( or ( <= ( + X1 12 ) X15 )  ( <= ( + X15 30 ) X1 )  ( <= ( + Y1 99 ) Y15 )  ( <= ( + Y15 37 ) Y1 )  )
( or ( <= ( + X1 12 ) X16 )  ( <= ( + X16 9 ) X1 )  ( <= ( + Y1 99 ) Y16 )  ( <= ( + Y16 63 ) Y1 )  )
( or ( <= ( + X1 12 ) X17 )  ( <= ( + X17 65 ) X1 )  ( <= ( + Y1 99 ) Y17 )  ( <= ( + Y17 82 ) Y1 )  )
( or ( <= ( + X2 83 ) X3 )  ( <= ( + X3 59 ) X2 )  ( <= ( + Y2 67 ) Y3 )  ( <= ( + Y3 6 ) Y2 )  )
( or ( <= ( + X2 83 ) X4 )  ( <= ( + X4 49 ) X2 )  ( <= ( + Y2 67 ) Y4 )  ( <= ( + Y4 93 ) Y2 )  )
( or ( <= ( + X2 83 ) X5 )  ( <= ( + X5 28 ) X2 )  ( <= ( + Y2 67 ) Y5 )  ( <= ( + Y5 8 ) Y2 )  )
( or ( <= ( + X2 83 ) X6 )  ( <= ( + X6 41 ) X2 )  ( <= ( + Y2 67 ) Y6 )  ( <= ( + Y6 7 ) Y2 )  )
( or ( <= ( + X2 83 ) X7 )  ( <= ( + X7 35 ) X2 )  ( <= ( + Y2 67 ) Y7 )  ( <= ( + Y7 82 ) Y2 )  )
( or ( <= ( + X2 83 ) X8 )  ( <= ( + X8 71 ) X2 )  ( <= ( + Y2 67 ) Y8 )  ( <= ( + Y8 8 ) Y2 )  )
( or ( <= ( + X2 83 ) X9 )  ( <= ( + X9 24 ) X2 )  ( <= ( + Y2 67 ) Y9 )  ( <= ( + Y9 78 ) Y2 )  )
( or ( <= ( + X2 83 ) X10 )  ( <= ( + X10 29 ) X2 )  ( <= ( + Y2 67 ) Y10 )  ( <= ( + Y10 62 ) Y2 )  )
( or ( <= ( + X2 83 ) X11 )  ( <= ( + X11 90 ) X2 )  ( <= ( + Y2 67 ) Y11 )  ( <= ( + Y11 19 ) Y2 )  )
( or ( <= ( + X2 83 ) X12 )  ( <= ( + X12 76 ) X2 )  ( <= ( + Y2 67 ) Y12 )  ( <= ( + Y12 54 ) Y2 )  )
( or ( <= ( + X2 83 ) X13 )  ( <= ( + X13 89 ) X2 )  ( <= ( + Y2 67 ) Y13 )  ( <= ( + Y13 5 ) Y2 )  )
( or ( <= ( + X2 83 ) X14 )  ( <= ( + X14 11 ) X2 )  ( <= ( + Y2 67 ) Y14 )  ( <= ( + Y14 82 ) Y2 )  )
( or ( <= ( + X2 83 ) X15 )  ( <= ( + X15 30 ) X2 )  ( <= ( + Y2 67 ) Y15 )  ( <= ( + Y15 37 ) Y2 )  )
( or ( <= ( + X2 83 ) X16 )  ( <= ( + X16 9 ) X2 )  ( <= ( + Y2 67 ) Y16 )  ( <= ( + Y16 63 ) Y2 )  )
( or ( <= ( + X2 83 ) X17 )  ( <= ( + X17 65 ) X2 )  ( <= ( + Y2 67 ) Y17 )  ( <= ( + Y17 82 ) Y2 )  )
( or ( <= ( + X3 59 ) X4 )  ( <= ( + X4 49 ) X3 )  ( <= ( + Y3 6 ) Y4 )  ( <= ( + Y4 93 ) Y3 )  )
( or ( <= ( + X3 59 ) X5 )  ( <= ( + X5 28 ) X3 )  ( <= ( + Y3 6 ) Y5 )  ( <= ( + Y5 8 ) Y3 )  )
( or ( <= ( + X3 59 ) X6 )  ( <= ( + X6 41 ) X3 )  ( <= ( + Y3 6 ) Y6 )  ( <= ( + Y6 7 ) Y3 )  )
( or ( <= ( + X3 59 ) X7 )  ( <= ( + X7 35 ) X3 )  ( <= ( + Y3 6 ) Y7 )  ( <= ( + Y7 82 ) Y3 )  )
( or ( <= ( + X3 59 ) X8 )  ( <= ( + X8 71 ) X3 )  ( <= ( + Y3 6 ) Y8 )  ( <= ( + Y8 8 ) Y3 )  )
( or ( <= ( + X3 59 ) X9 )  ( <= ( + X9 24 ) X3 )  ( <= ( + Y3 6 ) Y9 )  ( <= ( + Y9 78 ) Y3 )  )
( or ( <= ( + X3 59 ) X10 )  ( <= ( + X10 29 ) X3 )  ( <= ( + Y3 6 ) Y10 )  ( <= ( + Y10 62 ) Y3 )  )
( or ( <= ( + X3 59 ) X11 )  ( <= ( + X11 90 ) X3 )  ( <= ( + Y3 6 ) Y11 )  ( <= ( + Y11 19 ) Y3 )  )
( or ( <= ( + X3 59 ) X12 )  ( <= ( + X12 76 ) X3 )  ( <= ( + Y3 6 ) Y12 )  ( <= ( + Y12 54 ) Y3 )  )
( or ( <= ( + X3 59 ) X13 )  ( <= ( + X13 89 ) X3 )  ( <= ( + Y3 6 ) Y13 )  ( <= ( + Y13 5 ) Y3 )  )
( or ( <= ( + X3 59 ) X14 )  ( <= ( + X14 11 ) X3 )  ( <= ( + Y3 6 ) Y14 )  ( <= ( + Y14 82 ) Y3 )  )
( or ( <= ( + X3 59 ) X15 )  ( <= ( + X15 30 ) X3 )  ( <= ( + Y3 6 ) Y15 )  ( <= ( + Y15 37 ) Y3 )  )
( or ( <= ( + X3 59 ) X16 )  ( <= ( + X16 9 ) X3 )  ( <= ( + Y3 6 ) Y16 )  ( <= ( + Y16 63 ) Y3 )  )
( or ( <= ( + X3 59 ) X17 )  ( <= ( + X17 65 ) X3 )  ( <= ( + Y3 6 ) Y17 )  ( <= ( + Y17 82 ) Y3 )  )
( or ( <= ( + X4 49 ) X5 )  ( <= ( + X5 28 ) X4 )  ( <= ( + Y4 93 ) Y5 )  ( <= ( + Y5 8 ) Y4 )  )
( or ( <= ( + X4 49 ) X6 )  ( <= ( + X6 41 ) X4 )  ( <= ( + Y4 93 ) Y6 )  ( <= ( + Y6 7 ) Y4 )  )
( or ( <= ( + X4 49 ) X7 )  ( <= ( + X7 35 ) X4 )  ( <= ( + Y4 93 ) Y7 )  ( <= ( + Y7 82 ) Y4 )  )
( or ( <= ( + X4 49 ) X8 )  ( <= ( + X8 71 ) X4 )  ( <= ( + Y4 93 ) Y8 )  ( <= ( + Y8 8 ) Y4 )  )
( or ( <= ( + X4 49 ) X9 )  ( <= ( + X9 24 ) X4 )  ( <= ( + Y4 93 ) Y9 )  ( <= ( + Y9 78 ) Y4 )  )
( or ( <= ( + X4 49 ) X10 )  ( <= ( + X10 29 ) X4 )  ( <= ( + Y4 93 ) Y10 )  ( <= ( + Y10 62 ) Y4 )  )
( or ( <= ( + X4 49 ) X11 )  ( <= ( + X11 90 ) X4 )  ( <= ( + Y4 93 ) Y11 )  ( <= ( + Y11 19 ) Y4 )  )
( or ( <= ( + X4 49 ) X12 )  ( <= ( + X12 76 ) X4 )  ( <= ( + Y4 93 ) Y12 )  ( <= ( + Y12 54 ) Y4 )  )
( or ( <= ( + X4 49 ) X13 )  ( <= ( + X13 89 ) X4 )  ( <= ( + Y4 93 ) Y13 )  ( <= ( + Y13 5 ) Y4 )  )
( or ( <= ( + X4 49 ) X14 )  ( <= ( + X14 11 ) X4 )  ( <= ( + Y4 93 ) Y14 )  ( <= ( + Y14 82 ) Y4 )  )
( or ( <= ( + X4 49 ) X15 )  ( <= ( + X15 30 ) X4 )  ( <= ( + Y4 93 ) Y15 )  ( <= ( + Y15 37 ) Y4 )  )
( or ( <= ( + X4 49 ) X16 )  ( <= ( + X16 9 ) X4 )  ( <= ( + Y4 93 ) Y16 )  ( <= ( + Y16 63 ) Y4 )  )
( or ( <= ( + X4 49 ) X17 )  ( <= ( + X17 65 ) X4 )  ( <= ( + Y4 93 ) Y17 )  ( <= ( + Y17 82 ) Y4 )  )
( or ( <= ( + X5 28 ) X6 )  ( <= ( + X6 41 ) X5 )  ( <= ( + Y5 8 ) Y6 )  ( <= ( + Y6 7 ) Y5 )  )
( or ( <= ( + X5 28 ) X7 )  ( <= ( + X7 35 ) X5 )  ( <= ( + Y5 8 ) Y7 )  ( <= ( + Y7 82 ) Y5 )  )
( or ( <= ( + X5 28 ) X8 )  ( <= ( + X8 71 ) X5 )  ( <= ( + Y5 8 ) Y8 )  ( <= ( + Y8 8 ) Y5 )  )
( or ( <= ( + X5 28 ) X9 )  ( <= ( + X9 24 ) X5 )  ( <= ( + Y5 8 ) Y9 )  ( <= ( + Y9 78 ) Y5 )  )
( or ( <= ( + X5 28 ) X10 )  ( <= ( + X10 29 ) X5 )  ( <= ( + Y5 8 ) Y10 )  ( <= ( + Y10 62 ) Y5 )  )
( or ( <= ( + X5 28 ) X11 )  ( <= ( + X11 90 ) X5 )  ( <= ( + Y5 8 ) Y11 )  ( <= ( + Y11 19 ) Y5 )  )
( or ( <= ( + X5 28 ) X12 )  ( <= ( + X12 76 ) X5 )  ( <= ( + Y5 8 ) Y12 )  ( <= ( + Y12 54 ) Y5 )  )
( or ( <= ( + X5 28 ) X13 )  ( <= ( + X13 89 ) X5 )  ( <= ( + Y5 8 ) Y13 )  ( <= ( + Y13 5 ) Y5 )  )
( or ( <= ( + X5 28 ) X14 )  ( <= ( + X14 11 ) X5 )  ( <= ( + Y5 8 ) Y14 )  ( <= ( + Y14 82 ) Y5 )  )
( or ( <= ( + X5 28 ) X15 )  ( <= ( + X15 30 ) X5 )  ( <= ( + Y5 8 ) Y15 )  ( <= ( + Y15 37 ) Y5 )  )
( or ( <= ( + X5 28 ) X16 )  ( <= ( + X16 9 ) X5 )  ( <= ( + Y5 8 ) Y16 )  ( <= ( + Y16 63 ) Y5 )  )
( or ( <= ( + X5 28 ) X17 )  ( <= ( + X17 65 ) X5 )  ( <= ( + Y5 8 ) Y17 )  ( <= ( + Y17 82 ) Y5 )  )
( or ( <= ( + X6 41 ) X7 )  ( <= ( + X7 35 ) X6 )  ( <= ( + Y6 7 ) Y7 )  ( <= ( + Y7 82 ) Y6 )  )
( or ( <= ( + X6 41 ) X8 )  ( <= ( + X8 71 ) X6 )  ( <= ( + Y6 7 ) Y8 )  ( <= ( + Y8 8 ) Y6 )  )
( or ( <= ( + X6 41 ) X9 )  ( <= ( + X9 24 ) X6 )  ( <= ( + Y6 7 ) Y9 )  ( <= ( + Y9 78 ) Y6 )  )
( or ( <= ( + X6 41 ) X10 )  ( <= ( + X10 29 ) X6 )  ( <= ( + Y6 7 ) Y10 )  ( <= ( + Y10 62 ) Y6 )  )
( or ( <= ( + X6 41 ) X11 )  ( <= ( + X11 90 ) X6 )  ( <= ( + Y6 7 ) Y11 )  ( <= ( + Y11 19 ) Y6 )  )
( or ( <= ( + X6 41 ) X12 )  ( <= ( + X12 76 ) X6 )  ( <= ( + Y6 7 ) Y12 )  ( <= ( + Y12 54 ) Y6 )  )
( or ( <= ( + X6 41 ) X13 )  ( <= ( + X13 89 ) X6 )  ( <= ( + Y6 7 ) Y13 )  ( <= ( + Y13 5 ) Y6 )  )
( or ( <= ( + X6 41 ) X14 )  ( <= ( + X14 11 ) X6 )  ( <= ( + Y6 7 ) Y14 )  ( <= ( + Y14 82 ) Y6 )  )
( or ( <= ( + X6 41 ) X15 )  ( <= ( + X15 30 ) X6 )  ( <= ( + Y6 7 ) Y15 )  ( <= ( + Y15 37 ) Y6 )  )
( or ( <= ( + X6 41 ) X16 )  ( <= ( + X16 9 ) X6 )  ( <= ( + Y6 7 ) Y16 )  ( <= ( + Y16 63 ) Y6 )  )
( or ( <= ( + X6 41 ) X17 )  ( <= ( + X17 65 ) X6 )  ( <= ( + Y6 7 ) Y17 )  ( <= ( + Y17 82 ) Y6 )  )
( or ( <= ( + X7 35 ) X8 )  ( <= ( + X8 71 ) X7 )  ( <= ( + Y7 82 ) Y8 )  ( <= ( + Y8 8 ) Y7 )  )
( or ( <= ( + X7 35 ) X9 )  ( <= ( + X9 24 ) X7 )  ( <= ( + Y7 82 ) Y9 )  ( <= ( + Y9 78 ) Y7 )  )
( or ( <= ( + X7 35 ) X10 )  ( <= ( + X10 29 ) X7 )  ( <= ( + Y7 82 ) Y10 )  ( <= ( + Y10 62 ) Y7 )  )
( or ( <= ( + X7 35 ) X11 )  ( <= ( + X11 90 ) X7 )  ( <= ( + Y7 82 ) Y11 )  ( <= ( + Y11 19 ) Y7 )  )
( or ( <= ( + X7 35 ) X12 )  ( <= ( + X12 76 ) X7 )  ( <= ( + Y7 82 ) Y12 )  ( <= ( + Y12 54 ) Y7 )  )
( or ( <= ( + X7 35 ) X13 )  ( <= ( + X13 89 ) X7 )  ( <= ( + Y7 82 ) Y13 )  ( <= ( + Y13 5 ) Y7 )  )
( or ( <= ( + X7 35 ) X14 )  ( <= ( + X14 11 ) X7 )  ( <= ( + Y7 82 ) Y14 )  ( <= ( + Y14 82 ) Y7 )  )
( or ( <= ( + X7 35 ) X15 )  ( <= ( + X15 30 ) X7 )  ( <= ( + Y7 82 ) Y15 )  ( <= ( + Y15 37 ) Y7 )  )
( or ( <= ( + X7 35 ) X16 )  ( <= ( + X16 9 ) X7 )  ( <= ( + Y7 82 ) Y16 )  ( <= ( + Y16 63 ) Y7 )  )
( or ( <= ( + X7 35 ) X17 )  ( <= ( + X17 65 ) X7 )  ( <= ( + Y7 82 ) Y17 )  ( <= ( + Y17 82 ) Y7 )  )
( or ( <= ( + X8 71 ) X9 )  ( <= ( + X9 24 ) X8 )  ( <= ( + Y8 8 ) Y9 )  ( <= ( + Y9 78 ) Y8 )  )
( or ( <= ( + X8 71 ) X10 )  ( <= ( + X10 29 ) X8 )  ( <= ( + Y8 8 ) Y10 )  ( <= ( + Y10 62 ) Y8 )  )
( or ( <= ( + X8 71 ) X11 )  ( <= ( + X11 90 ) X8 )  ( <= ( + Y8 8 ) Y11 )  ( <= ( + Y11 19 ) Y8 )  )
( or ( <= ( + X8 71 ) X12 )  ( <= ( + X12 76 ) X8 )  ( <= ( + Y8 8 ) Y12 )  ( <= ( + Y12 54 ) Y8 )  )
( or ( <= ( + X8 71 ) X13 )  ( <= ( + X13 89 ) X8 )  ( <= ( + Y8 8 ) Y13 )  ( <= ( + Y13 5 ) Y8 )  )
( or ( <= ( + X8 71 ) X14 )  ( <= ( + X14 11 ) X8 )  ( <= ( + Y8 8 ) Y14 )  ( <= ( + Y14 82 ) Y8 )  )
( or ( <= ( + X8 71 ) X15 )  ( <= ( + X15 30 ) X8 )  ( <= ( + Y8 8 ) Y15 )  ( <= ( + Y15 37 ) Y8 )  )
( or ( <= ( + X8 71 ) X16 )  ( <= ( + X16 9 ) X8 )  ( <= ( + Y8 8 ) Y16 )  ( <= ( + Y16 63 ) Y8 )  )
( or ( <= ( + X8 71 ) X17 )  ( <= ( + X17 65 ) X8 )  ( <= ( + Y8 8 ) Y17 )  ( <= ( + Y17 82 ) Y8 )  )
( or ( <= ( + X9 24 ) X10 )  ( <= ( + X10 29 ) X9 )  ( <= ( + Y9 78 ) Y10 )  ( <= ( + Y10 62 ) Y9 )  )
( or ( <= ( + X9 24 ) X11 )  ( <= ( + X11 90 ) X9 )  ( <= ( + Y9 78 ) Y11 )  ( <= ( + Y11 19 ) Y9 )  )
( or ( <= ( + X9 24 ) X12 )  ( <= ( + X12 76 ) X9 )  ( <= ( + Y9 78 ) Y12 )  ( <= ( + Y12 54 ) Y9 )  )
( or ( <= ( + X9 24 ) X13 )  ( <= ( + X13 89 ) X9 )  ( <= ( + Y9 78 ) Y13 )  ( <= ( + Y13 5 ) Y9 )  )
( or ( <= ( + X9 24 ) X14 )  ( <= ( + X14 11 ) X9 )  ( <= ( + Y9 78 ) Y14 )  ( <= ( + Y14 82 ) Y9 )  )
( or ( <= ( + X9 24 ) X15 )  ( <= ( + X15 30 ) X9 )  ( <= ( + Y9 78 ) Y15 )  ( <= ( + Y15 37 ) Y9 )  )
( or ( <= ( + X9 24 ) X16 )  ( <= ( + X16 9 ) X9 )  ( <= ( + Y9 78 ) Y16 )  ( <= ( + Y16 63 ) Y9 )  )
( or ( <= ( + X9 24 ) X17 )  ( <= ( + X17 65 ) X9 )  ( <= ( + Y9 78 ) Y17 )  ( <= ( + Y17 82 ) Y9 )  )
( or ( <= ( + X10 29 ) X11 )  ( <= ( + X11 90 ) X10 )  ( <= ( + Y10 62 ) Y11 )  ( <= ( + Y11 19 ) Y10 )  )
( or ( <= ( + X10 29 ) X12 )  ( <= ( + X12 76 ) X10 )  ( <= ( + Y10 62 ) Y12 )  ( <= ( + Y12 54 ) Y10 )  )
( or ( <= ( + X10 29 ) X13 )  ( <= ( + X13 89 ) X10 )  ( <= ( + Y10 62 ) Y13 )  ( <= ( + Y13 5 ) Y10 )  )
( or ( <= ( + X10 29 ) X14 )  ( <= ( + X14 11 ) X10 )  ( <= ( + Y10 62 ) Y14 )  ( <= ( + Y14 82 ) Y10 )  )
( or ( <= ( + X10 29 ) X15 )  ( <= ( + X15 30 ) X10 )  ( <= ( + Y10 62 ) Y15 )  ( <= ( + Y15 37 ) Y10 )  )
( or ( <= ( + X10 29 ) X16 )  ( <= ( + X16 9 ) X10 )  ( <= ( + Y10 62 ) Y16 )  ( <= ( + Y16 63 ) Y10 )  )
( or ( <= ( + X10 29 ) X17 )  ( <= ( + X17 65 ) X10 )  ( <= ( + Y10 62 ) Y17 )  ( <= ( + Y17 82 ) Y10 )  )
( or ( <= ( + X11 90 ) X12 )  ( <= ( + X12 76 ) X11 )  ( <= ( + Y11 19 ) Y12 )  ( <= ( + Y12 54 ) Y11 )  )
( or ( <= ( + X11 90 ) X13 )  ( <= ( + X13 89 ) X11 )  ( <= ( + Y11 19 ) Y13 )  ( <= ( + Y13 5 ) Y11 )  )
( or ( <= ( + X11 90 ) X14 )  ( <= ( + X14 11 ) X11 )  ( <= ( + Y11 19 ) Y14 )  ( <= ( + Y14 82 ) Y11 )  )
( or ( <= ( + X11 90 ) X15 )  ( <= ( + X15 30 ) X11 )  ( <= ( + Y11 19 ) Y15 )  ( <= ( + Y15 37 ) Y11 )  )
( or ( <= ( + X11 90 ) X16 )  ( <= ( + X16 9 ) X11 )  ( <= ( + Y11 19 ) Y16 )  ( <= ( + Y16 63 ) Y11 )  )
( or ( <= ( + X11 90 ) X17 )  ( <= ( + X17 65 ) X11 )  ( <= ( + Y11 19 ) Y17 )  ( <= ( + Y17 82 ) Y11 )  )
( or ( <= ( + X12 76 ) X13 )  ( <= ( + X13 89 ) X12 )  ( <= ( + Y12 54 ) Y13 )  ( <= ( + Y13 5 ) Y12 )  )
( or ( <= ( + X12 76 ) X14 )  ( <= ( + X14 11 ) X12 )  ( <= ( + Y12 54 ) Y14 )  ( <= ( + Y14 82 ) Y12 )  )
( or ( <= ( + X12 76 ) X15 )  ( <= ( + X15 30 ) X12 )  ( <= ( + Y12 54 ) Y15 )  ( <= ( + Y15 37 ) Y12 )  )
( or ( <= ( + X12 76 ) X16 )  ( <= ( + X16 9 ) X12 )  ( <= ( + Y12 54 ) Y16 )  ( <= ( + Y16 63 ) Y12 )  )
( or ( <= ( + X12 76 ) X17 )  ( <= ( + X17 65 ) X12 )  ( <= ( + Y12 54 ) Y17 )  ( <= ( + Y17 82 ) Y12 )  )
( or ( <= ( + X13 89 ) X14 )  ( <= ( + X14 11 ) X13 )  ( <= ( + Y13 5 ) Y14 )  ( <= ( + Y14 82 ) Y13 )  )
( or ( <= ( + X13 89 ) X15 )  ( <= ( + X15 30 ) X13 )  ( <= ( + Y13 5 ) Y15 )  ( <= ( + Y15 37 ) Y13 )  )
( or ( <= ( + X13 89 ) X16 )  ( <= ( + X16 9 ) X13 )  ( <= ( + Y13 5 ) Y16 )  ( <= ( + Y16 63 ) Y13 )  )
( or ( <= ( + X13 89 ) X17 )  ( <= ( + X17 65 ) X13 )  ( <= ( + Y13 5 ) Y17 )  ( <= ( + Y17 82 ) Y13 )  )
( or ( <= ( + X14 11 ) X15 )  ( <= ( + X15 30 ) X14 )  ( <= ( + Y14 82 ) Y15 )  ( <= ( + Y15 37 ) Y14 )  )
( or ( <= ( + X14 11 ) X16 )  ( <= ( + X16 9 ) X14 )  ( <= ( + Y14 82 ) Y16 )  ( <= ( + Y16 63 ) Y14 )  )
( or ( <= ( + X14 11 ) X17 )  ( <= ( + X17 65 ) X14 )  ( <= ( + Y14 82 ) Y17 )  ( <= ( + Y17 82 ) Y14 )  )
( or ( <= ( + X15 30 ) X16 )  ( <= ( + X16 9 ) X15 )  ( <= ( + Y15 37 ) Y16 )  ( <= ( + Y16 63 ) Y15 )  )
( or ( <= ( + X15 30 ) X17 )  ( <= ( + X17 65 ) X15 )  ( <= ( + Y15 37 ) Y17 )  ( <= ( + Y17 82 ) Y15 )  )
( or ( <= ( + X16 9 ) X17 )  ( <= ( + X17 65 ) X16 )  ( <= ( + Y16 63 ) Y17 )  ( <= ( + Y17 82 ) Y16 )  )
( >= X0 0)
( <= ( + X0 44) Z)
( >= Y0 0)
( <= ( + Y0 30 ) 212)
( >= X1 0)
( <= ( + X1 12) Z)
( >= Y1 0)
( <= ( + Y1 99 ) 212)
( >= X2 0)
( <= ( + X2 83) Z)
( >= Y2 0)
( <= ( + Y2 67 ) 212)
( >= X3 0)
( <= ( + X3 59) Z)
( >= Y3 0)
( <= ( + Y3 6 ) 212)
( >= X4 0)
( <= ( + X4 49) Z)
( >= Y4 0)
( <= ( + Y4 93 ) 212)
( >= X5 0)
( <= ( + X5 28) Z)
( >= Y5 0)
( <= ( + Y5 8 ) 212)
( >= X6 0)
( <= ( + X6 41) Z)
( >= Y6 0)
( <= ( + Y6 7 ) 212)
( >= X7 0)
( <= ( + X7 35) Z)
( >= Y7 0)
( <= ( + Y7 82 ) 212)
( >= X8 0)
( <= ( + X8 71) Z)
( >= Y8 0)
( <= ( + Y8 8 ) 212)
( >= X9 0)
( <= ( + X9 24) Z)
( >= Y9 0)
( <= ( + Y9 78 ) 212)
( >= X10 0)
( <= ( + X10 29) Z)
( >= Y10 0)
( <= ( + Y10 62 ) 212)
( >= X11 0)
( <= ( + X11 90) Z)
( >= Y11 0)
( <= ( + Y11 19 ) 212)
( >= X12 0)
( <= ( + X12 76) Z)
( >= Y12 0)
( <= ( + Y12 54 ) 212)
( >= X13 0)
( <= ( + X13 89) Z)
( >= Y13 0)
( <= ( + Y13 5 ) 212)
( >= X14 0)
( <= ( + X14 11) Z)
( >= Y14 0)
( <= ( + Y14 82 ) 212)
( >= X15 0)
( <= ( + X15 30) Z)
( >= Y15 0)
( <= ( + Y15 37 ) 212)
( >= X16 0)
( <= ( + X16 9) Z)
( >= Y16 0)
( <= ( + Y16 63 ) 212)
( >= X17 0)
( <= ( + X17 65) Z)
( >= Y17 0)
( <= ( + Y17 82 ) 212)
) )
)(=> $phi $goal))))